TITLE
Simulazione 10 MeV Elettroni + Targhetta + FF
DEFAULTS                                                              PRECISIO
BEAM           -0.02                       -0.3014   -0.3014          ELECTRON
BEAMPOS          0.0       0.0       -1.       0.0       0.0
SOURCE           -2.                                                  10MeV
EMF
EMFCUT        -5E-05     1.E-5       0.5  BLCKHOLE  @LASTMAT        1.PROD-CUT
EMFCUT        -5E-05     1.E-5                 OUT  @LASTREG        1.
GEOBEGIN                                                              COMBNAME
    0    0
SPH cnero      0.0 0.0 0.0 1000.
RCC LinacTi    0.0 0.0 0.0 0.0 0.0 0.006 1.4
RCC TaDisc     0.0 0.0 0.006 0.0 0.0 0.1 1.4
RCC AlDisc     0.0 0.0 0.106 0.0 0.0 1.9 4.0
RCC AirBet     0.0 0.0 0.106 0.0 0.0 0.1 1.0
RCC VacLinac   0.0 0.0 -1.0 0.0 0.0 1.0 1.4
RPP air        -2.5 2.5 -2.5 2.5 200. 220.
RCC C1         0.0 0.0 2. 0.0 0.0 5. 4.0
RPP C2         -0.5 0.5 -0.5 0.5 2. 7.
END
OUT          5 -cnero
VAC          5 +cnero  -TaDisc -AlDisc -LinacTi -VacLinac -AirBet -C1 -C2
Ta           5 TaDisc
Al           5 AlDisc -AirBet -C1
Ti           5 +LinacTi -VacLinac -TaDisc -AirBet
AirBet       5 +AirBet
VacLinac     5 +VacLinac
C1           5 +C1 -C2
C2           5 +C2
END
GEOEND
ASSIGNMA    BLCKHOLE       OUT
ASSIGNMA         AIR       VAC
ASSIGNMA    TANTALUM        Ta
ASSIGNMA    ALUMINUM        Al
ASSIGNMA    TITANIUM        Ti
ASSIGNMA         AIR    AirBet
ASSIGNMA      VACUUM  VacLinac
ASSIGNMA    TUNGSTEN        C1
ASSIGNMA         AIR        C2
RANDOMIZ                3000.0
START            1E7
STOP